(set-info :smt-lib-version 2.6)
(set-logic UF)
(set-info :source |Benchmarks from the paper: "Extending Sledgehammer with SMT Solvers" by Jasmin Blanchette, Sascha Bohme, and Lawrence C. Paulson, CADE 2011.  Translated to SMT2 by Andrew Reynolds and Morgan Deters.|)
(set-info :category "industrial")
(set-info :status unsat)
(declare-sort S1 0)
(declare-sort S2 0)
(declare-sort S3 0)
(declare-sort S4 0)
(declare-sort S5 0)
(declare-sort S6 0)
(declare-sort S7 0)
(declare-sort S8 0)
(declare-sort S9 0)
(declare-sort S10 0)
(declare-sort S11 0)
(declare-sort S12 0)
(declare-sort S13 0)
(declare-sort S14 0)
(declare-sort S15 0)
(declare-sort S16 0)
(declare-sort S17 0)
(declare-sort S18 0)
(declare-sort S19 0)
(declare-sort S20 0)
(declare-sort S21 0)
(declare-sort S22 0)
(declare-sort S23 0)
(declare-sort S24 0)
(declare-sort S25 0)
(declare-sort S26 0)
(declare-sort S27 0)
(declare-sort S28 0)
(declare-sort S29 0)
(declare-sort S30 0)
(declare-sort S31 0)
(declare-sort S32 0)
(declare-sort S33 0)
(declare-sort S34 0)
(declare-sort S35 0)
(declare-sort S36 0)
(declare-fun f1 () S1)
(declare-fun f2 () S1)
(declare-fun f3 (S3 S2) S1)
(declare-fun f4 (S4 S2) S3)
(declare-fun f5 () S4)
(declare-fun f6 (S6 S5) S1)
(declare-fun f7 (S7 S5) S6)
(declare-fun f8 () S7)
(declare-fun f9 (S9 S8) S1)
(declare-fun f10 (S10 S8) S9)
(declare-fun f11 () S10)
(declare-fun f12 () S4)
(declare-fun f13 () S10)
(declare-fun f14 (S11 S3) S3)
(declare-fun f15 (S12 S2) S11)
(declare-fun f16 () S12)
(declare-fun f17 (S13 S3) S1)
(declare-fun f18 (S14 S2) S13)
(declare-fun f19 () S14)
(declare-fun f20 (S15 S9) S9)
(declare-fun f21 (S16 S8) S15)
(declare-fun f22 () S16)
(declare-fun f23 (S17 S9) S1)
(declare-fun f24 (S18 S8) S17)
(declare-fun f25 () S18)
(declare-fun f26 () S12)
(declare-fun f27 () S16)
(declare-fun f28 () S12)
(declare-fun f29 () S16)
(declare-fun f30 () S12)
(declare-fun f31 () S16)
(declare-fun f32 (S19 S5) S7)
(declare-fun f33 () S19)
(declare-fun f34 (S20 S7) S19)
(declare-fun f35 () S20)
(declare-fun f36 (S22 S21) S7)
(declare-fun f37 () S22)
(declare-fun f38 () S22)
(declare-fun f39 (S23 S7) S7)
(declare-fun f40 (S24 S1) S23)
(declare-fun f41 () S24)
(declare-fun f42 () S3)
(declare-fun f43 () S9)
(declare-fun f44 (S25 S3) S13)
(declare-fun f45 () S25)
(declare-fun f46 () S3)
(declare-fun f47 () S12)
(declare-fun f48 (S26 S7) S2)
(declare-fun f49 (S27 S21) S26)
(declare-fun f50 (S28 S7) S27)
(declare-fun f51 () S28)
(declare-fun f52 () S21)
(declare-fun f53 () S3)
(declare-fun f54 (S29 S30) S9)
(declare-fun f55 () S29)
(declare-fun f56 () S30)
(declare-fun f57 (S31 S8) S21)
(declare-fun f58 () S31)
(declare-fun f59 (S32 S33) S21)
(declare-fun f60 () S32)
(declare-fun f61 (S30 S8) S33)
(declare-fun f62 (S34 S21) S2)
(declare-fun f63 () S34)
(declare-fun f64 () S16)
(declare-fun f65 () S9)
(declare-fun f66 () S11)
(declare-fun f67 () S15)
(declare-fun f68 () S25)
(declare-fun f69 (S35 S3) S2)
(declare-fun f70 () S35)
(declare-fun f71 (S36 S9) S8)
(declare-fun f72 () S36)
(declare-fun f73 () S1)
(declare-fun f74 () S1)
(assert (not (= f1 f2)))
(assert (forall ((?v0 S2) (?v1 S2)) (= (= (f3 (f4 f5 ?v0) ?v1) f1) (= ?v0 ?v1))))
(assert (forall ((?v0 S5) (?v1 S5)) (= (= (f6 (f7 f8 ?v0) ?v1) f1) (= ?v0 ?v1))))
(assert (forall ((?v0 S8) (?v1 S8)) (= (= (f9 (f10 f11 ?v0) ?v1) f1) (= ?v0 ?v1))))
(assert (forall ((?v0 S2) (?v1 S2)) (= (= (f3 (f4 f12 ?v0) ?v1) f1) (= ?v1 ?v0))))
(assert (forall ((?v0 S8) (?v1 S8)) (= (= (f9 (f10 f13 ?v0) ?v1) f1) (= ?v1 ?v0))))
(assert (forall ((?v0 S2) (?v1 S3) (?v2 S2)) (= (= (f3 (f14 (f15 f16 ?v0) ?v1) ?v2) f1) (or (= ?v2 ?v0) (= (f17 (f18 f19 ?v2) ?v1) f1)))))
(assert (forall ((?v0 S8) (?v1 S9) (?v2 S8)) (= (= (f9 (f20 (f21 f22 ?v0) ?v1) ?v2) f1) (or (= ?v2 ?v0) (= (f23 (f24 f25 ?v2) ?v1) f1)))))
(assert (forall ((?v0 S2) (?v1 S3) (?v2 S2)) (= (= (f3 (f14 (f15 f26 ?v0) ?v1) ?v2) f1) (and (= ?v0 ?v2) (= (f3 ?v1 ?v2) f1)))))
(assert (forall ((?v0 S8) (?v1 S9) (?v2 S8)) (= (= (f9 (f20 (f21 f27 ?v0) ?v1) ?v2) f1) (and (= ?v0 ?v2) (= (f9 ?v1 ?v2) f1)))))
(assert (forall ((?v0 S2) (?v1 S3) (?v2 S2)) (= (= (f3 (f14 (f15 f28 ?v0) ?v1) ?v2) f1) (and (= ?v2 ?v0) (= (f3 ?v1 ?v2) f1)))))
(assert (forall ((?v0 S8) (?v1 S9) (?v2 S8)) (= (= (f9 (f20 (f21 f29 ?v0) ?v1) ?v2) f1) (and (= ?v2 ?v0) (= (f9 ?v1 ?v2) f1)))))
(assert (forall ((?v0 S2) (?v1 S3) (?v2 S2)) (= (= (f3 (f14 (f15 f30 ?v0) ?v1) ?v2) f1) (=> (not (= ?v2 ?v0)) (= (f3 ?v1 ?v2) f1)))))
(assert (forall ((?v0 S8) (?v1 S9) (?v2 S8)) (= (= (f9 (f20 (f21 f31 ?v0) ?v1) ?v2) f1) (=> (not (= ?v2 ?v0)) (= (f9 ?v1 ?v2) f1)))))
(assert (forall ((?v0 S5) (?v1 S5) (?v2 S5)) (= (= (f6 (f7 (f32 f33 ?v0) ?v1) ?v2) f1) (= ?v2 ?v0))))
(assert (forall ((?v0 S7) (?v1 S5) (?v2 S5)) (= (f7 (f32 (f34 f35 ?v0) ?v1) ?v2) (f7 ?v0 ?v1))))
(assert (forall ((?v0 S21) (?v1 S5) (?v2 S5)) (= (= (f6 (f7 (f36 f37 ?v0) ?v1) ?v2) f1) (forall ((?v3 S5)) (=> (= (f6 (f7 (f36 f38 ?v0) ?v2) ?v3) f1) (= ?v1 ?v3))))))
(assert (forall ((?v0 S1) (?v1 S7) (?v2 S5) (?v3 S5)) (= (= (f6 (f7 (f39 (f40 f41 ?v0) ?v1) ?v2) ?v3) f1) (and (= (f6 (f7 ?v1 ?v2) ?v3) f1) (= ?v0 f1)))))
(assert (forall ((?v0 S2)) (= (= (f3 f42 ?v0) f1) false)))
(assert (forall ((?v0 S8)) (= (= (f9 f43 ?v0) f1) false)))
(assert (not (= (f17 (f44 f45 f46) (f14 (f15 f47 (f48 (f49 (f50 f51 f8) f52) (f36 f38 f52))) f53)) f1)))
(assert (forall ((?v0 S8)) (let ((?v_0 (f57 f58 ?v0))) (=> (= (f23 (f24 f25 ?v0) (f54 f55 f56)) f1) (= (f17 (f44 f45 f46) (f14 (f15 f47 (f48 (f49 (f50 f51 f8) ?v_0) (f36 f38 ?v_0))) f53)) f1)))))
(assert (forall ((?v0 S3)) (= (f17 (f44 f45 ?v0) f53) f1)))
(assert (forall ((?v0 S3) (?v1 S7)) (= (f17 (f44 f45 ?v0) (f14 (f15 f47 (f48 (f49 (f50 f51 ?v1) f52) ?v1)) f53)) f1)))
(assert (forall ((?v0 S7) (?v1 S21) (?v2 S7) (?v3 S7) (?v4 S21) (?v5 S7)) (= (= (f48 (f49 (f50 f51 ?v0) ?v1) ?v2) (f48 (f49 (f50 f51 ?v3) ?v4) ?v5)) (and (= ?v0 ?v3) (and (= ?v1 ?v4) (= ?v2 ?v5))))))
(assert (forall ((?v0 S3) (?v1 S3) (?v2 S3)) (let ((?v_0 (f44 f45 ?v2))) (=> (= (f17 (f44 f45 ?v0) ?v1) f1) (=> (= (f17 ?v_0 ?v0) f1) (= (f17 ?v_0 ?v1) f1))))))
(assert (forall ((?v0 S3) (?v1 S2) (?v2 S3)) (let ((?v_0 (f44 f45 ?v0)) (?v_1 (f15 f47 ?v1))) (=> (= (f17 ?v_0 (f14 ?v_1 f53)) f1) (=> (= (f17 ?v_0 ?v2) f1) (= (f17 ?v_0 (f14 ?v_1 ?v2)) f1))))))
(assert (forall ((?v0 S3) (?v1 S2) (?v2 S3)) (let ((?v_0 (f44 f45 ?v0)) (?v_1 (f15 f47 ?v1))) (=> (= (f17 ?v_0 (f14 ?v_1 ?v2)) f1) (and (= (f17 ?v_0 (f14 ?v_1 f53)) f1) (= (f17 ?v_0 ?v2) f1))))))
(assert (forall ((?v0 S1) (?v1 S3) (?v2 S7) (?v3 S21) (?v4 S7)) (let ((?v_0 (f44 f45 ?v1))) (=> (=> (= ?v0 f1) (= (f17 ?v_0 (f14 (f15 f47 (f48 (f49 (f50 f51 ?v2) ?v3) ?v4)) f53)) f1)) (= (f17 ?v_0 (f14 (f15 f47 (f48 (f49 (f50 f51 (f39 (f40 f41 ?v0) ?v2)) ?v3) ?v4)) f53)) f1)))))
(assert (forall ((?v0 S5)) (= (f6 (f7 (f36 f38 f52) ?v0) ?v0) f1)))
(assert (forall ((?v0 S5) (?v1 S5)) (=> (= (f6 (f7 (f36 f38 f52) ?v0) ?v1) f1) (=> (=> (= ?v1 ?v0) false) false))))
(assert (forall ((?v0 S7) (?v1 S3) (?v2 S21) (?v3 S7)) (=> (forall ((?v4 S5) (?v5 S5)) (=> (= (f6 (f7 ?v0 ?v4) ?v5) f1) (= (f17 (f44 f45 ?v1) (f14 (f15 f47 (f48 (f49 (f50 f51 (f32 f33 ?v5)) ?v2) (f32 (f34 f35 ?v3) ?v4))) f53)) f1))) (= (f17 (f44 f45 ?v1) (f14 (f15 f47 (f48 (f49 (f50 f51 ?v0) ?v2) ?v3)) f53)) f1))))
(assert (forall ((?v0 S3) (?v1 S7) (?v2 S21) (?v3 S7) (?v4 S7)) (let ((?v_0 (f44 f45 ?v0)) (?v_1 (f49 (f50 f51 ?v1) ?v2))) (=> (= (f17 ?v_0 (f14 (f15 f47 (f48 ?v_1 ?v3)) f53)) f1) (=> (forall ((?v5 S5) (?v6 S5)) (=> (= (f6 (f7 ?v3 ?v5) ?v6) f1) (= (f6 (f7 ?v4 ?v5) ?v6) f1))) (= (f17 ?v_0 (f14 (f15 f47 (f48 ?v_1 ?v4)) f53)) f1))))))
(assert (forall ((?v0 S3) (?v1 S7) (?v2 S21) (?v3 S7) (?v4 S7)) (let ((?v_0 (f44 f45 ?v0))) (=> (= (f17 ?v_0 (f14 (f15 f47 (f48 (f49 (f50 f51 ?v1) ?v2) ?v3)) f53)) f1) (=> (forall ((?v5 S5) (?v6 S5)) (=> (= (f6 (f7 ?v4 ?v5) ?v6) f1) (= (f6 (f7 ?v1 ?v5) ?v6) f1))) (= (f17 ?v_0 (f14 (f15 f47 (f48 (f49 (f50 f51 ?v4) ?v2) ?v3)) f53)) f1))))))
(assert (forall ((?v0 S3) (?v1 S7) (?v2 S8) (?v3 S7)) (let ((?v_0 (f44 f45 ?v0)) (?v_1 (f50 f51 ?v1))) (=> (= (f17 ?v_0 (f14 (f15 f47 (f48 (f49 ?v_1 (f59 f60 (f61 f56 ?v2))) ?v3)) f53)) f1) (= (f17 ?v_0 (f14 (f15 f47 (f48 (f49 ?v_1 (f57 f58 ?v2)) ?v3)) f53)) f1)))))
(assert (forall ((?v0 S7) (?v1 S8) (?v2 S7) (?v3 S3)) (let ((?v_0 (f50 f51 ?v0))) (let ((?v_1 (f15 f47 (f48 (f49 ?v_0 (f57 f58 ?v1)) ?v2)))) (=> (= (f17 (f44 f45 (f14 ?v_1 ?v3)) (f14 (f15 f47 (f48 (f49 ?v_0 (f59 f60 (f61 f56 ?v1))) ?v2)) f53)) f1) (= (f17 (f44 f45 ?v3) (f14 ?v_1 f53)) f1))))))
(assert (forall ((?v0 S21)) (= (f62 f63 ?v0) (f48 (f49 (f50 f51 f8) ?v0) (f36 f38 ?v0)))))
(assert (forall ((?v0 S2) (?v1 S2) (?v2 S3)) (let ((?v_0 (f18 f19 ?v0))) (=> (= (f17 ?v_0 (f14 (f15 f47 ?v1) ?v2)) f1) (=> (=> (= ?v0 ?v1) false) (=> (=> (= (f17 ?v_0 ?v2) f1) false) false))))))
(assert (forall ((?v0 S8) (?v1 S8) (?v2 S9)) (let ((?v_0 (f24 f25 ?v0))) (=> (= (f23 ?v_0 (f20 (f21 f64 ?v1) ?v2)) f1) (=> (=> (= ?v0 ?v1) false) (=> (=> (= (f23 ?v_0 ?v2) f1) false) false))))))
(assert (forall ((?v0 S2) (?v1 S3) (?v2 S2)) (let ((?v_0 (f18 f19 ?v0))) (=> (=> (not (= (f17 ?v_0 ?v1) f1)) (= ?v0 ?v2)) (= (f17 ?v_0 (f14 (f15 f47 ?v2) ?v1)) f1)))))
(assert (forall ((?v0 S8) (?v1 S9) (?v2 S8)) (let ((?v_0 (f24 f25 ?v0))) (=> (=> (not (= (f23 ?v_0 ?v1) f1)) (= ?v0 ?v2)) (= (f23 ?v_0 (f20 (f21 f64 ?v2) ?v1)) f1)))))
(assert (forall ((?v0 S8)) (=> (= (f23 (f24 f25 ?v0) f65) f1) false)))
(assert (forall ((?v0 S2)) (=> (= (f17 (f18 f19 ?v0) f53) f1) false)))
(assert (forall ((?v0 S3) (?v1 S7) (?v2 S21) (?v3 S7) (?v4 S7) (?v5 S7)) (let ((?v_0 (f44 f45 ?v0))) (=> (= (f17 ?v_0 (f14 (f15 f47 (f48 (f49 (f50 f51 ?v1) ?v2) ?v3)) f53)) f1) (=> (forall ((?v6 S5) (?v7 S5)) (=> (= (f6 (f7 ?v4 ?v6) ?v7) f1) (forall ((?v8 S5)) (=> (forall ((?v9 S5)) (=> (= (f6 (f7 ?v1 ?v9) ?v7) f1) (= (f6 (f7 ?v3 ?v9) ?v8) f1))) (= (f6 (f7 ?v5 ?v6) ?v8) f1))))) (= (f17 ?v_0 (f14 (f15 f47 (f48 (f49 (f50 f51 ?v4) ?v2) ?v5)) f53)) f1))))))
(assert (forall ((?v0 S8) (?v1 S5) (?v2 S5)) (=> (= (f6 (f7 (f36 f38 (f59 f60 (f61 f56 ?v0))) ?v1) ?v2) f1) (= (f6 (f7 (f36 f38 (f57 f58 ?v0)) ?v1) ?v2) f1))))
(assert (forall ((?v0 S8) (?v1 S5) (?v2 S5)) (=> (= (f6 (f7 (f36 f38 (f57 f58 ?v0)) ?v1) ?v2) f1) (=> (=> (= (f6 (f7 (f36 f38 (f59 f60 (f61 f56 ?v0))) ?v1) ?v2) f1) false) false))))
(assert (forall ((?v0 S9) (?v1 S8)) (=> (= ?v0 f65) (not (= (f23 (f24 f25 ?v1) ?v0) f1)))))
(assert (forall ((?v0 S3) (?v1 S2)) (=> (= ?v0 f53) (not (= (f17 (f18 f19 ?v1) ?v0) f1)))))
(assert (forall ((?v0 S3)) (= (= (f14 f66 ?v0) f53) (forall ((?v1 S2)) (not (= (f3 ?v0 ?v1) f1))))))
(assert (forall ((?v0 S9)) (= (= (f20 f67 ?v0) f65) (forall ((?v1 S8)) (not (= (f9 ?v0 ?v1) f1))))))
(assert (forall ((?v0 S8)) (= (= (f23 (f24 f25 ?v0) f65) f1) false)))
(assert (forall ((?v0 S2)) (= (= (f17 (f18 f19 ?v0) f53) f1) false)))
(assert (forall ((?v0 S3)) (= (= f53 (f14 f66 ?v0)) (forall ((?v1 S2)) (not (= (f3 ?v0 ?v1) f1))))))
(assert (forall ((?v0 S9)) (= (= f65 (f20 f67 ?v0)) (forall ((?v1 S8)) (not (= (f9 ?v0 ?v1) f1))))))
(assert (forall ((?v0 S9)) (= (forall ((?v1 S8)) (=> (= (f23 (f24 f25 ?v1) f65) f1) (= (f9 ?v0 ?v1) f1))) true)))
(assert (forall ((?v0 S3)) (= (forall ((?v1 S2)) (=> (= (f17 (f18 f19 ?v1) f53) f1) (= (f3 ?v0 ?v1) f1))) true)))
(assert (forall ((?v0 S9)) (= (exists ((?v1 S8)) (and (= (f23 (f24 f25 ?v1) f65) f1) (= (f9 ?v0 ?v1) f1))) false)))
(assert (forall ((?v0 S3)) (= (exists ((?v1 S2)) (and (= (f17 (f18 f19 ?v1) f53) f1) (= (f3 ?v0 ?v1) f1))) false)))
(assert (forall ((?v0 S9)) (= (exists ((?v1 S8)) (= (f23 (f24 f25 ?v1) ?v0) f1)) (not (= ?v0 f65)))))
(assert (forall ((?v0 S3)) (= (exists ((?v1 S2)) (= (f17 (f18 f19 ?v1) ?v0) f1)) (not (= ?v0 f53)))))
(assert (forall ((?v0 S9)) (= (forall ((?v1 S8)) (not (= (f23 (f24 f25 ?v1) ?v0) f1))) (= ?v0 f65))))
(assert (forall ((?v0 S3)) (= (forall ((?v1 S2)) (not (= (f17 (f18 f19 ?v1) ?v0) f1))) (= ?v0 f53))))
(assert (= f53 (f14 f66 f42)))
(assert (= f65 (f20 f67 f43)))
(assert (forall ((?v0 S2) (?v1 S3)) (=> (= (f17 (f18 f19 ?v0) ?v1) f1) (= (f14 (f15 f47 ?v0) ?v1) ?v1))))
(assert (forall ((?v0 S8) (?v1 S9)) (=> (= (f23 (f24 f25 ?v0) ?v1) f1) (= (f20 (f21 f64 ?v0) ?v1) ?v1))))
(assert (forall ((?v0 S2) (?v1 S3) (?v2 S2)) (let ((?v_0 (f18 f19 ?v0))) (=> (= (f17 ?v_0 ?v1) f1) (= (f17 ?v_0 (f14 (f15 f47 ?v2) ?v1)) f1)))))
(assert (forall ((?v0 S8) (?v1 S9) (?v2 S8)) (let ((?v_0 (f24 f25 ?v0))) (=> (= (f23 ?v_0 ?v1) f1) (= (f23 ?v_0 (f20 (f21 f64 ?v2) ?v1)) f1)))))
(assert (forall ((?v0 S2) (?v1 S3) (?v2 S3)) (let ((?v_0 (f18 f19 ?v0)) (?v_1 (f15 f47 ?v0))) (=> (not (= (f17 ?v_0 ?v1) f1)) (=> (not (= (f17 ?v_0 ?v2) f1)) (= (= (f14 ?v_1 ?v1) (f14 ?v_1 ?v2)) (= ?v1 ?v2)))))))
(assert (forall ((?v0 S8) (?v1 S9) (?v2 S9)) (let ((?v_0 (f24 f25 ?v0)) (?v_1 (f21 f64 ?v0))) (=> (not (= (f23 ?v_0 ?v1) f1)) (=> (not (= (f23 ?v_0 ?v2) f1)) (= (= (f20 ?v_1 ?v1) (f20 ?v_1 ?v2)) (= ?v1 ?v2)))))))
(assert (forall ((?v0 S2) (?v1 S3) (?v2 S2)) (= (= (f3 (f14 (f15 f47 ?v0) ?v1) ?v2) f1) (or (= ?v0 ?v2) (= (f3 ?v1 ?v2) f1)))))
(assert (forall ((?v0 S8) (?v1 S9) (?v2 S8)) (= (= (f9 (f20 (f21 f64 ?v0) ?v1) ?v2) f1) (or (= ?v0 ?v2) (= (f9 ?v1 ?v2) f1)))))
(assert (forall ((?v0 S2) (?v1 S2) (?v2 S3)) (let ((?v_0 (f18 f19 ?v0))) (= (= (f17 ?v_0 (f14 (f15 f47 ?v1) ?v2)) f1) (or (= ?v0 ?v1) (= (f17 ?v_0 ?v2) f1))))))
(assert (forall ((?v0 S8) (?v1 S8) (?v2 S9)) (let ((?v_0 (f24 f25 ?v0))) (= (= (f23 ?v_0 (f20 (f21 f64 ?v1) ?v2)) f1) (or (= ?v0 ?v1) (= (f23 ?v_0 ?v2) f1))))))
(assert (forall ((?v0 S2) (?v1 S2) (?v2 S3)) (let ((?v_1 (f15 f47 ?v0)) (?v_0 (f15 f47 ?v1))) (= (f14 ?v_1 (f14 ?v_0 ?v2)) (f14 ?v_0 (f14 ?v_1 ?v2))))))
(assert (forall ((?v0 S8) (?v1 S8) (?v2 S9)) (let ((?v_1 (f21 f64 ?v0)) (?v_0 (f21 f64 ?v1))) (= (f20 ?v_1 (f20 ?v_0 ?v2)) (f20 ?v_0 (f20 ?v_1 ?v2))))))
(assert (forall ((?v0 S2) (?v1 S3)) (let ((?v_0 (f15 f47 ?v0))) (let ((?v_1 (f14 ?v_0 ?v1))) (= (f14 ?v_0 ?v_1) ?v_1)))))
(assert (forall ((?v0 S8) (?v1 S9)) (let ((?v_0 (f21 f64 ?v0))) (let ((?v_1 (f20 ?v_0 ?v1))) (= (f20 ?v_0 ?v_1) ?v_1)))))
(assert (forall ((?v0 S2) (?v1 S3)) (= (f14 (f15 f47 ?v0) (f14 f66 ?v1)) (f14 f66 (f14 (f15 f30 ?v0) ?v1)))))
(assert (forall ((?v0 S8) (?v1 S9)) (= (f20 (f21 f64 ?v0) (f20 f67 ?v1)) (f20 f67 (f20 (f21 f31 ?v0) ?v1)))))
(assert (forall ((?v0 S2) (?v1 S3)) (= (f14 (f15 f47 ?v0) ?v1) (f14 f66 (f14 (f15 f16 ?v0) ?v1)))))
(assert (forall ((?v0 S8) (?v1 S9)) (= (f20 (f21 f64 ?v0) ?v1) (f20 f67 (f20 (f21 f22 ?v0) ?v1)))))
(assert (forall ((?v0 S2) (?v1 S3)) (= (f17 (f18 f19 ?v0) (f14 (f15 f47 ?v0) ?v1)) f1)))
(assert (forall ((?v0 S8) (?v1 S9)) (= (f23 (f24 f25 ?v0) (f20 (f21 f64 ?v0) ?v1)) f1)))
(assert (forall ((?v0 S21) (?v1 S5) (?v2 S5) (?v3 S5)) (let ((?v_0 (f7 (f36 f38 ?v0) ?v1))) (=> (= (f6 ?v_0 ?v2) f1) (=> (= (f6 ?v_0 ?v3) f1) (= ?v3 ?v2))))))
(assert (forall ((?v0 S2) (?v1 S3)) (= (f14 (f15 f47 ?v0) ?v1) (f14 f66 (f14 (f15 f16 ?v0) ?v1)))))
(assert (forall ((?v0 S8) (?v1 S9)) (= (f20 (f21 f64 ?v0) ?v1) (f20 f67 (f20 (f21 f22 ?v0) ?v1)))))
(assert (forall ((?v0 S2) (?v1 S2)) (=> (= (f14 (f15 f47 ?v0) f53) (f14 (f15 f47 ?v1) f53)) (= ?v0 ?v1))))
(assert (forall ((?v0 S8) (?v1 S8)) (=> (= (f20 (f21 f64 ?v0) f65) (f20 (f21 f64 ?v1) f65)) (= ?v0 ?v1))))
(assert (forall ((?v0 S2) (?v1 S2)) (=> (= (f17 (f18 f19 ?v0) (f14 (f15 f47 ?v1) f53)) f1) (=> (=> (= ?v0 ?v1) false) false))))
(assert (forall ((?v0 S8) (?v1 S8)) (=> (= (f23 (f24 f25 ?v0) (f20 (f21 f64 ?v1) f65)) f1) (=> (=> (= ?v0 ?v1) false) false))))
(assert (forall ((?v0 S2) (?v1 S2) (?v2 S2) (?v3 S2)) (= (= (f14 (f15 f47 ?v0) (f14 (f15 f47 ?v1) f53)) (f14 (f15 f47 ?v2) (f14 (f15 f47 ?v3) f53))) (or (and (= ?v0 ?v2) (= ?v1 ?v3)) (and (= ?v0 ?v3) (= ?v1 ?v2))))))
(assert (forall ((?v0 S8) (?v1 S8) (?v2 S8) (?v3 S8)) (= (= (f20 (f21 f64 ?v0) (f20 (f21 f64 ?v1) f65)) (f20 (f21 f64 ?v2) (f20 (f21 f64 ?v3) f65))) (or (and (= ?v0 ?v2) (= ?v1 ?v3)) (and (= ?v0 ?v3) (= ?v1 ?v2))))))
(assert (forall ((?v0 S2) (?v1 S2)) (= (= (f17 (f18 f19 ?v0) (f14 (f15 f47 ?v1) f53)) f1) (= ?v0 ?v1))))
(assert (forall ((?v0 S8) (?v1 S8)) (= (= (f23 (f24 f25 ?v0) (f20 (f21 f64 ?v1) f65)) f1) (= ?v0 ?v1))))
(assert (forall ((?v0 S2) (?v1 S3)) (not (= (f14 (f15 f47 ?v0) ?v1) f53))))
(assert (forall ((?v0 S8) (?v1 S9)) (not (= (f20 (f21 f64 ?v0) ?v1) f65))))
(assert (forall ((?v0 S2) (?v1 S3)) (not (= f53 (f14 (f15 f47 ?v0) ?v1)))))
(assert (forall ((?v0 S8) (?v1 S9)) (not (= f65 (f20 (f21 f64 ?v0) ?v1)))))
(assert (forall ((?v0 S2) (?v1 S3)) (= (f14 f66 (f14 (f15 f28 ?v0) ?v1)) (ite (= (f3 ?v1 ?v0) f1) (f14 (f15 f47 ?v0) f53) f53))))
(assert (forall ((?v0 S8) (?v1 S9)) (= (f20 f67 (f20 (f21 f29 ?v0) ?v1)) (ite (= (f9 ?v1 ?v0) f1) (f20 (f21 f64 ?v0) f65) f65))))
(assert (forall ((?v0 S2) (?v1 S3)) (= (f14 f66 (f14 (f15 f26 ?v0) ?v1)) (ite (= (f3 ?v1 ?v0) f1) (f14 (f15 f47 ?v0) f53) f53))))
(assert (forall ((?v0 S8) (?v1 S9)) (= (f20 f67 (f20 (f21 f27 ?v0) ?v1)) (ite (= (f9 ?v1 ?v0) f1) (f20 (f21 f64 ?v0) f65) f65))))
(assert (forall ((?v0 S2)) (= (f14 f66 (f4 f12 ?v0)) (f14 (f15 f47 ?v0) f53))))
(assert (forall ((?v0 S8)) (= (f20 f67 (f10 f13 ?v0)) (f20 (f21 f64 ?v0) f65))))
(assert (forall ((?v0 S2)) (= (f14 f66 (f4 f5 ?v0)) (f14 (f15 f47 ?v0) f53))))
(assert (forall ((?v0 S8)) (= (f20 f67 (f10 f11 ?v0)) (f20 (f21 f64 ?v0) f65))))
(assert (forall ((?v0 S21) (?v1 S7) (?v2 S7)) (let ((?v_0 (f44 f45 f53)) (?v_1 (f14 (f15 f47 (f48 (f49 (f50 f51 ?v1) ?v0) ?v2)) f53))) (=> (= (f17 ?v_0 (f14 (f15 f47 (f62 f63 ?v0)) f53)) f1) (=> (= (f17 (f44 f68 f53) ?v_1) f1) (= (f17 ?v_0 ?v_1) f1))))))
(assert (forall ((?v0 S3) (?v1 S21)) (let ((?v_0 (f44 f45 ?v0))) (=> (= (f17 ?v_0 (f14 (f15 f47 (f62 f63 ?v1)) f53)) f1) (= (f17 ?v_0 (f14 (f15 f47 (f48 (f49 (f50 f51 (f36 f37 ?v1)) ?v1) f8)) f53)) f1)))))
(assert (forall ((?v0 S2)) (= (f69 f70 (f14 (f15 f47 ?v0) f53)) ?v0)))
(assert (forall ((?v0 S8)) (= (f71 f72 (f20 (f21 f64 ?v0) f65)) ?v0)))
(assert (forall ((?v0 S8)) (not (= (f57 f58 ?v0) f52))))
(assert (forall ((?v0 S8)) (not (= f52 (f57 f58 ?v0)))))
(assert (forall ((?v0 S3) (?v1 S21)) (let ((?v_0 (f44 f45 ?v0))) (=> (= f73 f1) (=> (= (f17 ?v_0 (f14 (f15 f47 (f48 (f49 (f50 f51 (f36 f37 ?v1)) ?v1) f8)) f53)) f1) (= (f17 ?v_0 (f14 (f15 f47 (f62 f63 ?v1)) f53)) f1))))))
(assert (forall ((?v0 S2)) (= (= (f3 f53 ?v0) f1) (= f74 f1))))
(assert (forall ((?v0 S8)) (= (= (f9 f65 ?v0) f1) (= f74 f1))))
(assert (forall ((?v0 S2)) (= (= (f3 f53 ?v0) f1) (= f74 f1))))
(assert (forall ((?v0 S8)) (= (= (f9 f65 ?v0) f1) (= f74 f1))))
(assert (forall ((?v0 S3) (?v1 S3)) (=> (= (f17 (f44 f45 ?v0) ?v1) f1) (= (f17 (f44 f68 ?v0) ?v1) f1))))
(check-sat)
(exit)
